(set-option :produce-models true)
(define-fun ceil ((x Real)) Int (ite (= (to_int x) x) (to_int x) (+ (to_int x) 1)))
(define-fun min2 ((x Int) (y Int)) Int (ite (< x y) x y))
(define-fun max2 ((x Int) (y Int)) Int (ite (> x y) x y))
(define-fun sqrt ((x Real)) Real (^ x 0.5))

(declare-const x_size0 Int)
(set-info :example-x_size0 8)
(declare-const x_size1 Int)
(set-info :example-x_size1 3)
(declare-const x_size2 Int)
(set-info :example-x_size2 224)
(declare-const x_size3 Int)
(set-info :example-x_size3 224)
(declare-const x_stride0 Int)
(set-info :example-x_stride0 150528)
(declare-const x_stride1 Int)
(set-info :example-x_stride1 50176)
(declare-const x_stride2 Int)
(set-info :example-x_stride2 224)
(declare-const x_stride3 Int)
(set-info :example-x_stride3 1)
(declare-const x_storage_offset Int)
(set-info :example-x_storage_offset 0)
(define-fun ge () Bool (>= x_size0 0))
(assert ge)
(define-fun ge_1 () Bool (>= x_size1 0))
(assert ge_1)
(define-fun ge_2 () Bool (>= x_size2 0))
(assert ge_2)
(define-fun ge_3 () Bool (>= x_size3 0))
(assert ge_3)
(define-fun eq () Bool (= x_size0 0))
(define-fun not_ () Bool (not eq))
(assert not_)
(define-fun sub () Int (- x_size0 1))
(define-fun mul () Int (* x_stride0 sub))
(define-fun add () Int (+ 1 mul))
(define-fun eq_1 () Bool (= x_size1 0))
(define-fun not__1 () Bool (not eq_1))
(assert not__1)
(define-fun sub_1 () Int (- x_size1 1))
(define-fun mul_1 () Int (* x_stride1 sub_1))
(define-fun add_1 () Int (+ add mul_1))
(define-fun eq_2 () Bool (= x_size2 0))
(define-fun not__2 () Bool (not eq_2))
(assert not__2)
(define-fun sub_2 () Int (- x_size2 1))
(define-fun mul_2 () Int (* x_stride2 sub_2))
(define-fun add_2 () Int (+ add_1 mul_2))
(define-fun eq_3 () Bool (= x_size3 0))
(define-fun not__3 () Bool (not eq_3))
(assert not__3)
(define-fun sub_3 () Int (- x_size3 1))
(define-fun mul_3 () Int (* x_stride3 sub_3))
(define-fun add_3 () Int (+ add_2 mul_3))
(define-fun mul_4 () Int (* 4 add_3))
(define-fun mul_5 () Int (* x_size0 x_size1))
(define-fun mul_6 () Int (* mul_5 x_size2))
(define-fun mul_7 () Int (* mul_6 x_size3))
(define-fun eq_4 () Bool (= mul_7 0))
(define-fun not__4 () Bool (not eq_4))
(assert not__4)
(define-fun eq_5 () Bool (= x_size3 1))
(define-fun not__5 () Bool (not eq_5))
(assert not__5)
(define-fun eq_6 () Bool (= x_stride3 1))
(assert eq_6)
(define-fun eq_7 () Bool (= x_size2 1))
(define-fun not__6 () Bool (not eq_7))
(assert not__6)
(define-fun eq_8 () Bool (= x_stride2 x_size3))
(assert eq_8)
(define-fun mul_8 () Int (* x_size3 x_size2))
(define-fun eq_9 () Bool (= x_size1 1))
(define-fun not__7 () Bool (not eq_9))
(assert not__7)
(define-fun eq_10 () Bool (= x_stride1 mul_8))
(assert eq_10)
(define-fun mul_9 () Int (* mul_8 x_size1))
(define-fun eq_11 () Bool (= x_size0 1))
(define-fun not__8 () Bool (not eq_11))
(assert not__8)
(define-fun eq_12 () Bool (= x_stride0 mul_9))
(assert eq_12)
(define-fun mul_10 () Int (* mul_9 x_size0))
(define-fun eq_13 () Bool (= x_stride1 1))
(define-fun not__9 () Bool (not eq_13))
(assert not__9)
(define-fun eq_14 () Bool (= x_stride1 0))
(define-fun not__10 () Bool (not eq_14))
(assert not__10)
(define-fun lt () Bool (< x_stride1 0))
(define-fun not__11 () Bool (not lt))
(assert not__11)
(define-fun gt () Bool (> x_size1 1))
(assert gt)
(define-fun mul_11 () Int (* x_stride1 x_size1))
(define-fun lt_1 () Bool (< x_stride3 mul_11))
(assert lt_1)
(define-fun ge_4 () Bool (>= x_storage_offset 0))
(assert ge_4)
(define-fun add_4 () Int (+ x_storage_offset add_3))
(define-fun mul_12 () Int (* 4 add_4))
(define-fun eq_15 () Bool (= x_size2 224))
(assert eq_15)
(define-fun eq_16 () Bool (= x_size3 224))
(assert eq_16)
(define-fun eq_17 () Bool (= x_size1 3))
(assert eq_17)
(define-fun lt_2 () Bool (< x_size2 16))
(define-fun not__12 () Bool (not lt_2))
(assert not__12)
(define-fun lt_3 () Bool (< x_size3 16))
(define-fun not__13 () Bool (not lt_3))
(assert not__13)
(define-fun floordiv () Int (div mul_7 x_size0))
(define-fun gt_1 () Bool (> floordiv 2147483647))
(define-fun not__14 () Bool (not gt_1))
(assert not__14)
(define-fun sub_4 () Int (- x_size2 16))
(define-fun floordiv_1 () Int (div sub_4 16))
(define-fun add_5 () Int (+ floordiv_1 1))
(define-fun sub_5 () Int (- x_size3 16))
(define-fun floordiv_2 () Int (div sub_5 16))
(define-fun add_6 () Int (+ floordiv_2 1))
(define-fun mul_13 () Int (* 256 add_5))
(define-fun mul_14 () Int (* mul_13 add_6))
(define-fun gt_2 () Bool (> mul_14 2147483647))
(define-fun not__15 () Bool (not gt_2))
(assert not__15)
(define-fun sub_6 () Int (- x_size2 15))
(define-fun sub_7 () Int (- sub_6 1))
(define-fun floordiv_3 () Int (div sub_7 16))
(define-fun add_7 () Int (+ floordiv_3 1))
(define-fun sub_8 () Int (- x_size3 15))
(define-fun sub_9 () Int (- sub_8 1))
(define-fun floordiv_4 () Int (div sub_9 16))
(define-fun add_8 () Int (+ floordiv_4 1))
(define-fun ge_5 () Bool (>= add_7 0))
(assert ge_5)
(define-fun ge_6 () Bool (>= add_8 0))
(assert ge_6)
(define-fun eq_18 () Bool (= add_8 0))
(define-fun not__16 () Bool (not eq_18))
(assert not__16)
(define-fun eq_19 () Bool (= add_7 0))
(define-fun not__17 () Bool (not eq_19))
(assert not__17)
(define-fun mul_15 () Int (* add_8 add_7))
(define-fun mul_16 () Int (* mul_15 256))
(define-fun mul_17 () Int (* mul_16 x_size0))
(define-fun mul_18 () Int (* mul_16 sub))
(define-fun add_9 () Int (+ 1 mul_18))
(define-fun mul_19 () Int (* mul_15 255))
(define-fun add_10 () Int (+ add_9 mul_19))
(define-fun sub_10 () Int (- add_7 1))
(define-fun mul_20 () Int (* add_8 sub_10))
(define-fun add_11 () Int (+ add_10 mul_20))
(define-fun sub_11 () Int (- add_8 1))
(define-fun add_12 () Int (+ add_11 sub_11))
(define-fun mul_21 () Int (* 4 add_12))
(define-fun mul_22 () Int (* x_size0 256))
(define-fun mul_23 () Int (* mul_22 add_7))
(define-fun mul_24 () Int (* mul_23 add_8))
(define-fun eq_20 () Bool (= mul_24 0))
(define-fun not__18 () Bool (not eq_20))
(assert not__18)
(define-fun eq_21 () Bool (= add_8 1))
(define-fun not__19 () Bool (not eq_21))
(assert not__19)
(define-fun eq_22 () Bool (= add_7 1))
(define-fun not__20 () Bool (not eq_22))
(assert not__20)
(define-fun eq_23 () Bool (= add_8 add_8))
(assert eq_23)
(define-fun eq_24 () Bool (= mul_15 mul_15))
(assert eq_24)
(define-fun eq_25 () Bool (= mul_16 mul_16))
(assert eq_25)
(define-fun eq_26 () Bool (= mul_15 1))
(define-fun not__21 () Bool (not eq_26))
(assert not__21)
(define-fun eq_27 () Bool (= mul_15 0))
(define-fun not__22 () Bool (not eq_27))
(assert not__22)
(define-fun lt_4 () Bool (< mul_15 0))
(define-fun not__23 () Bool (not lt_4))
(assert not__23)
(define-fun lt_5 () Bool (< 1 mul_16))
(assert lt_5)
(define-fun gt_3 () Bool (> x_stride1 1))
(assert gt_3)
(define-fun mul_25 () Int (* add_7 add_8))
(define-fun eq_28 () Bool (= x_size0 -1))
(define-fun not__24 () Bool (not eq_28))
(assert not__24)
(define-fun eq_29 () Bool (= mul_25 -1))
(define-fun not__25 () Bool (not eq_29))
(assert not__25)
(define-fun ge_7 () Bool (>= mul_25 0))
(assert ge_7)
(define-fun mul_26 () Int (* mul_22 mul_25))
(define-fun eq_30 () Bool (= mul_24 mul_26))
(assert eq_30)
(define-fun lt_6 () Bool (< 1 mul_17))
(assert lt_6)
(define-fun lt_7 () Bool (< mul_25 mul_17))
(assert lt_7)
(define-fun mul_27 () Int (* mul_25 256))
(define-fun lt_8 () Bool (< mul_27 mul_17))
(assert lt_8)
(define-fun mul_28 () Int (* mul_27 x_size0))
(define-fun eq_31 () Bool (= mul_28 mul_17))
(assert eq_31)
(define-fun eq_32 () Bool (= x_size0 x_size0))
(assert eq_32)
(define-fun eq_33 () Bool (= add_7 mul_25))
(define-fun not__26 () Bool (not eq_33))
(assert not__26)
(define-fun eq_34 () Bool (= mul_25 add_7))
(define-fun not__27 () Bool (not eq_34))
(assert not__27)
(define-fun mod () Int (mod add_7 mul_25))
(define-fun eq_35 () Bool (= mod 0))
(define-fun not__28 () Bool (not eq_35))
(assert not__28)
(define-fun mod_1 () Int (mod mul_25 mul_25))
(define-fun eq_36 () Bool (= mod_1 0))
(assert eq_36)
(define-fun lt_9 () Bool (< add_8 1))
(define-fun not__29 () Bool (not lt_9))
(assert not__29)
(define-fun gt_4 () Bool (> mul_24 0))
(assert gt_4)
(define-fun mul_29 () Int (* mul_22 mul_15))
(define-fun eq_37 () Bool (= mul_29 0))
(define-fun not__30 () Bool (not eq_37))
(assert not__30)
(define-fun eq_38 () Bool (= mul_25 mul_25))
(assert eq_38)
(define-fun mul_30 () Int (* x_size0 mul_15))
(define-fun mul_31 () Int (* mul_30 256))
(define-fun eq_39 () Bool (= mul_31 0))
(define-fun not__31 () Bool (not eq_39))
(assert not__31)
(define-fun lt_10 () Bool (< mul_15 2))
(define-fun not__32 () Bool (not lt_10))
(assert not__32)
(define-fun lt_11 () Bool (< x_size0 2))
(define-fun not__33 () Bool (not lt_11))
(assert not__33)
(define-fun lt_12 () Bool (< mul_15 1))
(define-fun not__34 () Bool (not lt_12))
(assert not__34)
(define-fun lt_13 () Bool (< mul_15 mul_16))
(assert lt_13)
(define-fun ge_8 () Bool (>= mul_15 0))
(assert ge_8)
(define-fun mul_32 () Int (* 256 mul_15))
(define-fun mul_33 () Int (* mul_32 x_size0))
(define-fun mul_34 () Int (* mul_32 sub))
(define-fun add_13 () Int (+ 1 mul_34))
(define-fun sub_12 () Int (- mul_15 1))
(define-fun mul_35 () Int (* 256 sub_12))
(define-fun add_14 () Int (+ add_13 mul_35))
(define-fun add_15 () Int (+ add_14 255))
(define-fun mul_36 () Int (* 4 add_15))
(define-fun eq_40 () Bool (= mul_32 mul_32))
(assert eq_40)
(define-fun mul_37 () Int (* mul_15 x_size0))
(define-fun mul_38 () Int (* mul_15 sub))
(define-fun add_16 () Int (+ 1 mul_38))
(define-fun add_17 () Int (+ add_16 sub_12))
(define-fun mul_39 () Int (* 4 add_17))
(define-fun eq_41 () Bool (= mul_30 0))
(define-fun not__35 () Bool (not eq_41))
(assert not__35)
(define-fun lt_14 () Bool (< x_size0 0))
(define-fun not__36 () Bool (not lt_14))
(assert not__36)
(define-fun gt_5 () Bool (> mul_15 1))
(assert gt_5)
(define-fun eq_42 () Bool (= mul_15 -1))
(define-fun not__37 () Bool (not eq_42))
(assert not__37)
(define-fun lt_15 () Bool (< 1 mul_15))
(assert lt_15)
(define-fun eq_43 () Bool (= mul_32 0))
(define-fun not__38 () Bool (not eq_43))
(assert not__38)
(define-fun gt_6 () Bool (> mul_32 256))
(assert gt_6)
(define-fun eq_44 () Bool (= mul_30 -1))
(define-fun not__39 () Bool (not eq_44))
(assert not__39)
(define-fun ge_9 () Bool (>= mul_30 0))
(assert ge_9)
(define-fun eq_45 () Bool (= mul_31 mul_31))
(assert eq_45)
(define-fun eq_46 () Bool (= x_size0 mul_30))
(define-fun not__40 () Bool (not eq_46))
(assert not__40)
(define-fun eq_47 () Bool (= mul_30 x_size0))
(define-fun not__41 () Bool (not eq_47))
(assert not__41)
(define-fun mod_2 () Int (mod x_size0 mul_30))
(define-fun eq_48 () Bool (= mod_2 0))
(define-fun not__42 () Bool (not eq_48))
(assert not__42)
(define-fun mod_3 () Int (mod mul_30 mul_30))
(define-fun eq_49 () Bool (= mod_3 0))
(assert eq_49)
(define-fun lt_16 () Bool (< mul_32 256))
(define-fun not__43 () Bool (not lt_16))
(assert not__43)
(define-fun gt_7 () Bool (> mul_31 0))
(assert gt_7)
(define-fun mul_40 () Int (* mul_37 256))
(define-fun eq_50 () Bool (= mul_40 0))
(define-fun not__44 () Bool (not eq_50))
(assert not__44)
(define-fun eq_51 () Bool (= mul_37 1))
(define-fun not__45 () Bool (not eq_51))
(assert not__45)
(define-fun mul_41 () Int (* 256 mul_37))
(define-fun eq_52 () Bool (= mul_30 mul_30))
(assert eq_52)
(define-fun ge_10 () Bool (>= mul_37 0))
(assert ge_10)
(define-fun eq_53 () Bool (= mul_37 0))
(define-fun not__46 () Bool (not eq_53))
(assert not__46)
(define-fun mul_42 () Int (* 1536 mul_37))
(define-fun sub_13 () Int (- mul_37 1))
(define-fun mul_43 () Int (* 1536 sub_13))
(define-fun add_18 () Int (+ 1 mul_43))
(define-fun add_19 () Int (+ add_18 1535))
(define-fun mul_44 () Int (* 4 add_19))
(define-fun mul_45 () Int (* mul_37 1536))
(define-fun eq_54 () Bool (= mul_45 0))
(define-fun not__47 () Bool (not eq_54))
(assert not__47)
(define-fun lt_17 () Bool (< mul_37 0))
(define-fun not__48 () Bool (not lt_17))
(assert not__48)
(define-fun eq_55 () Bool (= mul_37 mul_37))
(assert eq_55)
(define-fun lt_18 () Bool (< mul_37 2))
(define-fun not__49 () Bool (not lt_18))
(assert not__49)
(define-fun mul_46 () Int (* mul_30 1536))
(define-fun eq_56 () Bool (= mul_45 mul_46))
(assert eq_56)
(define-fun eq_57 () Bool (= mul_37 x_size0))
(define-fun not__50 () Bool (not eq_57))
(assert not__50)
(define-fun eq_58 () Bool (= x_size0 mul_37))
(define-fun not__51 () Bool (not eq_58))
(assert not__51)
(define-fun mod_4 () Int (mod mul_37 x_size0))
(define-fun eq_59 () Bool (= mod_4 0))
(assert eq_59)
(define-fun floordiv_5 () Int (div mul_37 x_size0))
(define-fun mul_47 () Int (* 1536 floordiv_5))
(define-fun mul_48 () Int (* x_size0 floordiv_5))
(define-fun mul_49 () Int (* mul_48 1536))
(define-fun eq_60 () Bool (= mul_49 0))
(define-fun not__52 () Bool (not eq_60))
(assert not__52)
(define-fun eq_61 () Bool (= floordiv_5 1))
(define-fun not__53 () Bool (not eq_61))
(assert not__53)
(define-fun eq_62 () Bool (= mul_47 mul_47))
(assert eq_62)
(define-fun mul_50 () Int (* mul_47 x_size0))
(define-fun eq_63 () Bool (= mul_15 floordiv_5))
(assert eq_63)
(define-fun lt_19 () Bool (< floordiv_5 0))
(define-fun not__54 () Bool (not lt_19))
(assert not__54)
(define-fun eq_64 () Bool (= floordiv_5 floordiv_5))
(assert eq_64)
(define-fun eq_65 () Bool (= mul_47 0))
(define-fun not__55 () Bool (not eq_65))
(assert not__55)
(define-fun gt_8 () Bool (> mul_47 1536))
(assert gt_8)
(define-fun ge_11 () Bool (>= floordiv_5 0))
(assert ge_11)
(define-fun eq_66 () Bool (= floordiv_5 0))
(define-fun not__56 () Bool (not eq_66))
(assert not__56)
(define-fun mul_51 () Int (* mul_47 sub))
(define-fun add_20 () Int (+ 1 mul_51))
(define-fun sub_14 () Int (- floordiv_5 1))
(define-fun mul_52 () Int (* 1536 sub_14))
(define-fun add_21 () Int (+ add_20 mul_52))
(define-fun add_22 () Int (+ add_21 1535))
(define-fun mul_53 () Int (* 4 add_22))
(define-fun mul_54 () Int (* mul_48 768))
(define-fun eq_67 () Bool (= mul_54 0))
(define-fun not__57 () Bool (not eq_67))
(assert not__57)
(define-fun lt_20 () Bool (< floordiv_5 2))
(define-fun not__58 () Bool (not lt_20))
(assert not__58)
(define-fun lt_21 () Bool (< 1536 mul_47))
(assert lt_21)
(define-fun mul_55 () Int (* 768 floordiv_5))
(define-fun mul_56 () Int (* mul_55 x_size0))
(define-fun mul_57 () Int (* mul_55 sub))
(define-fun add_23 () Int (+ 1 mul_57))
(define-fun mul_58 () Int (* 768 sub_14))
(define-fun add_24 () Int (+ add_23 mul_58))
(define-fun add_25 () Int (+ add_24 767))
(define-fun mul_59 () Int (* 4 add_25))
(define-fun eq_68 () Bool (= mul_55 mul_55))
(assert eq_68)
(define-fun mul_60 () Int (* floordiv_5 x_size0))
(define-fun mul_61 () Int (* floordiv_5 sub))
(define-fun add_26 () Int (+ 1 mul_61))
(define-fun add_27 () Int (+ add_26 sub_14))
(define-fun mul_62 () Int (* 4 add_27))
(define-fun eq_69 () Bool (= mul_48 0))
(define-fun not__59 () Bool (not eq_69))
(assert not__59)
(define-fun lt_22 () Bool (< floordiv_5 1))
(define-fun not__60 () Bool (not lt_22))
(assert not__60)
(define-fun gt_9 () Bool (> floordiv_5 1))
(assert gt_9)
(define-fun eq_70 () Bool (= floordiv_5 -1))
(define-fun not__61 () Bool (not eq_70))
(assert not__61)
(define-fun lt_23 () Bool (< 1 floordiv_5))
(assert lt_23)
(define-fun eq_71 () Bool (= mul_55 0))
(define-fun not__62 () Bool (not eq_71))
(assert not__62)
(define-fun gt_10 () Bool (> mul_55 768))
(assert gt_10)
(define-fun mul_63 () Int (* x_size0 768))
(define-fun mul_64 () Int (* mul_63 floordiv_5))
(define-fun eq_72 () Bool (= mul_64 0))
(define-fun not__63 () Bool (not eq_72))
(assert not__63)
(define-fun lt_24 () Bool (< 1 mul_55))
(assert lt_24)
(define-fun lt_25 () Bool (< 768 mul_55))
(assert lt_25)
(define-fun eq_73 () Bool (= mul_64 mul_64))
(assert eq_73)
(define-fun mul_65 () Int (* floordiv_5 768))
(define-fun eq_74 () Bool (= 1 mul_65))
(define-fun not__64 () Bool (not eq_74))
(assert not__64)
(define-fun lt_26 () Bool (< floordiv_5 floordiv_5))
(define-fun not__65 () Bool (not lt_26))
(assert not__65)
(define-fun eq_75 () Bool (= mul_55 768))
(define-fun not__66 () Bool (not eq_75))
(assert not__66)
(define-fun lt_27 () Bool (< 1 x_size0))
(assert lt_27)
(define-fun mul_66 () Int (* x_size0 196))
(define-fun mul_67 () Int (* mul_66 196))
(define-fun eq_76 () Bool (= mul_67 0))
(define-fun not__67 () Bool (not eq_76))
(assert not__67)
(define-fun eq_77 () Bool (= mul_67 mul_67))
(assert eq_77)
(define-fun eq_78 () Bool (= floordiv_5 196))
(assert eq_78)
(define-fun mul_68 () Int (* 150528 x_size0))
(define-fun mul_69 () Int (* 150528 sub))
(define-fun add_28 () Int (+ 1 mul_69))
(define-fun add_29 () Int (+ add_28 150332))
(define-fun add_30 () Int (+ add_29 195))
(define-fun mul_70 () Int (* 4 add_30))
(define-fun mul_71 () Int (* mul_63 196))
(define-fun eq_79 () Bool (= mul_71 0))
(define-fun not__68 () Bool (not eq_79))
(assert not__68)
(define-fun eq_80 () Bool (= mul_71 mul_71))
(assert eq_80)
(define-fun mul_72 () Int (* mul_66 768))
(define-fun eq_81 () Bool (= mul_72 0))
(define-fun not__69 () Bool (not eq_81))
(assert not__69)
(define-fun eq_82 () Bool (= mul_48 -1))
(define-fun not__70 () Bool (not eq_82))
(assert not__70)
(define-fun ge_12 () Bool (>= mul_48 0))
(assert ge_12)
(define-fun eq_83 () Bool (= mul_54 mul_54))
(assert eq_83)
(define-fun eq_84 () Bool (= x_size0 mul_48))
(define-fun not__71 () Bool (not eq_84))
(assert not__71)
(define-fun eq_85 () Bool (= mul_48 x_size0))
(define-fun not__72 () Bool (not eq_85))
(assert not__72)
(define-fun mod_5 () Int (mod x_size0 mul_48))
(define-fun eq_86 () Bool (= mod_5 0))
(define-fun not__73 () Bool (not eq_86))
(assert not__73)
(define-fun mod_6 () Int (mod mul_48 mul_48))
(define-fun eq_87 () Bool (= mod_6 0))
(assert eq_87)
(define-fun lt_28 () Bool (< mul_55 768))
(define-fun not__74 () Bool (not lt_28))
(assert not__74)
(define-fun gt_11 () Bool (> mul_54 0))
(assert gt_11)
(define-fun mul_73 () Int (* mul_60 768))
(define-fun eq_88 () Bool (= mul_73 0))
(define-fun not__75 () Bool (not eq_88))
(assert not__75)
(define-fun eq_89 () Bool (= mul_60 1))
(define-fun not__76 () Bool (not eq_89))
(assert not__76)
(define-fun mul_74 () Int (* 768 mul_60))
(define-fun eq_90 () Bool (= mul_48 mul_48))
(assert eq_90)
(define-fun ge_13 () Bool (>= mul_60 0))
(assert ge_13)
(define-fun eq_91 () Bool (= mul_60 0))
(define-fun not__77 () Bool (not eq_91))
(assert not__77)
(define-fun mul_75 () Int (* 256 mul_60))
(define-fun sub_15 () Int (- mul_60 1))
(define-fun mul_76 () Int (* 256 sub_15))
(define-fun add_31 () Int (+ 1 mul_76))
(define-fun add_32 () Int (+ add_31 255))
(define-fun mul_77 () Int (* 4 add_32))
(define-fun mul_78 () Int (* mul_60 256))
(define-fun eq_92 () Bool (= mul_78 0))
(define-fun not__78 () Bool (not eq_92))
(assert not__78)
(define-fun lt_29 () Bool (< mul_60 0))
(define-fun not__79 () Bool (not lt_29))
(assert not__79)
(define-fun eq_93 () Bool (= mul_60 mul_60))
(assert eq_93)
(define-fun lt_30 () Bool (< mul_60 2))
(define-fun not__80 () Bool (not lt_30))
(assert not__80)
(define-fun mul_79 () Int (* mul_48 256))
(define-fun eq_94 () Bool (= mul_78 mul_79))
(assert eq_94)
(define-fun eq_95 () Bool (= mul_60 x_size0))
(define-fun not__81 () Bool (not eq_95))
(assert not__81)
(define-fun eq_96 () Bool (= x_size0 mul_60))
(define-fun not__82 () Bool (not eq_96))
(assert not__82)
(define-fun mod_7 () Int (mod mul_60 x_size0))
(define-fun eq_97 () Bool (= mod_7 0))
(assert eq_97)
(define-fun floordiv_6 () Int (div mul_60 x_size0))
(define-fun mul_80 () Int (* 256 floordiv_6))
(define-fun mul_81 () Int (* x_size0 floordiv_6))
(define-fun mul_82 () Int (* mul_81 256))
(define-fun eq_98 () Bool (= mul_82 0))
(define-fun not__83 () Bool (not eq_98))
(assert not__83)
(define-fun eq_99 () Bool (= floordiv_6 1))
(define-fun not__84 () Bool (not eq_99))
(assert not__84)
(define-fun eq_100 () Bool (= mul_80 mul_80))
(assert eq_100)
(define-fun mul_83 () Int (* mul_80 x_size0))
(define-fun eq_101 () Bool (= floordiv_5 floordiv_6))
(assert eq_101)
(define-fun eq_102 () Bool (= mul_15 floordiv_6))
(assert eq_102)
(define-fun eq_103 () Bool (= floordiv_6 mul_15))
(assert eq_103)
(define-fun eq_104 () Bool (= mul_16 0))
(define-fun not__85 () Bool (not eq_104))
(assert not__85)
(define-fun add_33 () Int (+ add_9 sub_12))
(define-fun add_34 () Int (+ add_33 mul_19))
(define-fun mul_84 () Int (* 4 add_34))
(define-fun mul_85 () Int (* 256 x_size0))
(define-fun mul_86 () Int (* 256 sub))
(define-fun add_35 () Int (+ 1 mul_86))
(define-fun add_36 () Int (+ add_35 255))
(define-fun mul_87 () Int (* 4 add_36))
(define-fun eq_105 () Bool (= mul_22 0))
(define-fun not__86 () Bool (not eq_105))
(assert not__86)
(define-fun sym_float () Real (to_real mul_15))
(define-fun mul_88 () Int (* 1000 x_size0))
(define-fun mul_89 () Int (* 1000 sub))
(define-fun add_37 () Int (+ 1 mul_89))
(define-fun add_38 () Int (+ add_37 999))
(define-fun mul_90 () Int (* 4 add_38))
(define-fun mul_91 () Int (* x_size0 1000))
(define-fun eq_106 () Bool (= mul_91 0))
(define-fun not__87 () Bool (not eq_106))
(assert not__87)
(define-fun eq_107 () Bool (= mul_12 0))
(define-fun not__88 () Bool (not eq_107))
(assert not__88)
(define-fun eq_108 () Bool (= mul_90 0))
(define-fun not__89 () Bool (not eq_108))
(assert not__89)
(define-fun output0_size0 () Int x_size0)
(define-fun output0_size1 () Int 1000)
(define-fun output0_stride0 () Int 1000)
(define-fun output0_stride1 () Int 1)
(define-fun output0_storage_offset () Int 0)
(check-sat)
(get-value (x_size0 x_size1 x_size2 x_size3 x_stride0 x_stride1 x_stride2 x_stride3 x_storage_offset output0_size0 output0_size1 output0_stride0 output0_stride1 output0_storage_offset))
